0 0 2 5 1
0 1 0 6 3
0 2 1 16 6
0 3 3 30 7
0 4 5 38 3
0 5 4 42 6
1 0 1 0 8
1 1 2 8 5
1 2 4 13 10
1 3 5 28 10
1 4 0 38 10
1 5 3 48 4
2 0 2 0 5
2 1 3 5 4
2 2 5 9 8
2 3 0 18 9
2 4 1 27 1
2 5 4 48 7
3 0 1 8 5
3 1 0 13 5
3 2 2 22 5
3 3 3 27 3
3 4 4 30 8
3 5 5 45 9
4 0 2 13 9
4 1 1 22 3
4 2 4 25 5
4 3 5 41 4
4 4 0 48 3
4 5 3 52 1
5 0 1 13 3
5 1 3 16 3
5 2 5 19 9
5 3 0 28 10
5 4 4 38 4
5 5 2 42 1
